Integracao/Dados/Otimizacao/Teste/ScpGeradoAPartirDeF.lp
\ Using Xpress-MP extensions
Minimize
 9 x(1) + 8 x(2) + 7 x(3) + 7 x(4) + 7 x(5) + 7 x(6) + 7 x(7) + 6 x(8) + 6 x(9) + 
6 x(10) + 6 x(11) + 6 x(12) + 5 x(13) + 5 x(14) + 5 x(15) + 5 x(16) + 5 x(17) + 
5 x(18) + 5 x(19) + 5 x(20) + 4 x(21) + 4 x(22) + 4 x(23) + 3 x(24) + 3 x(25) + 
x(26) + x(27)

Subject To
_R1: x(5) + x(6) + x(11) + x(13) + x(15) + x(17) >= 1
_R2: x(8) + x(9) + x(10) + x(20) + x(21) + x(24) >= 1
_R3: x(2) + x(7) + x(12) + x(14) + x(22) + x(25) + x(26) >= 1
_R4: x(1) + x(16) + x(18) + x(19) + x(23) + x(27) >= 1
_R5: x(8) + x(9) + x(18) + x(19) >= 1
_R6: x(5) + x(6) + x(11) + x(13) + x(15) + x(17) >= 1
_R7: x(10) + x(16) + x(20) + x(23) + x(24) + x(27) >= 1
_R8: x(2) + x(7) + x(12) + x(14) + x(22) + x(25) + x(26) >= 1
_R9: x(1) + x(4) + x(21) >= 1
_R10: x(7) + x(12) + x(14) + x(15) + x(17) >= 1
_R11: x(8) + x(9) + x(18) + x(19) >= 1
_R12: x(6) + x(11) + x(13) + x(22) + x(25) + x(26) >= 1
_R13: x(10) + x(16) + x(20) + x(23) + x(24) + x(27) >= 1
_R14: x(2) + x(3) + x(5) >= 1
_R15: x(1) + x(4) + x(21) >= 1
_R16: x(10) + x(16) + x(18) >= 1
_R17: x(7) + x(12) + x(14) + x(15) + x(17) >= 1
_R18: x(9) + x(19) + x(24) + x(27) >= 1
_R19: x(6) + x(11) + x(13) + x(22) + x(25) + x(26) >= 1
_R20: x(1) + x(4) + x(8) + x(20) + x(21) + x(23) >= 1
_R21: x(2) + x(3) + x(5) >= 1
_R22: x(11) + x(12) + x(25) >= 1
_R23: x(10) + x(16) + x(18) >= 1
_R24: x(13) + x(14) + x(15) + x(26) >= 1
_R25: x(9) + x(19) + x(24) + x(27) >= 1
_R26: x(2) + x(3) + x(5) + x(6) + x(7) + x(17) + x(22) >= 1
_R27: x(1) + x(4) + x(8) + x(20) + x(21) + x(23) >= 1

Bounds
x(3) = 1
x(4) = 1

Binaries
x(1) x(2) x(3) x(4) x(5) x(6) x(7) x(8) x(9) x(10) x(11) x(12) x(13) x(14) x(15) 
x(16) x(17) x(18) x(19) x(20) x(21) x(22) x(23) x(24) x(25) x(26) x(27) 

End
