Integracao/Dados/Otimizacao/Teste/ScpGeradoAPartirDeF.dat
CUSTO: [9 8 7 7 7 7 7 6 6 6 6 6 5 5 5 5 5 5 5 5 4 4 4 3 3 1 1 ]

MATCOB: [
(1 1) 1 (1 4) 1 (1 8) 1 (1 20) 1 (1 21) 1 (1 23) 1 
(2 2) 1 (2 3) 1 (2 5) 1 (2 6) 1 (2 7) 1 (2 17) 1 (2 22) 1 
(3 9) 1 (3 19) 1 (3 24) 1 (3 27) 1 
(4 13) 1 (4 14) 1 (4 15) 1 (4 26) 1 
(5 10) 1 (5 16) 1 (5 18) 1 
(6 11) 1 (6 12) 1 (6 25) 1 
(7 2) 1 (7 3) 1 (7 5) 1 
(8 1) 1 (8 4) 1 (8 8) 1 (8 20) 1 (8 21) 1 (8 23) 1 
(9 6) 1 (9 11) 1 (9 13) 1 (9 22) 1 (9 25) 1 (9 26) 1 
(10 9) 1 (10 19) 1 (10 24) 1 (10 27) 1 
(11 7) 1 (11 12) 1 (11 14) 1 (11 15) 1 (11 17) 1 
(12 10) 1 (12 16) 1 (12 18) 1 
(13 1) 1 (13 4) 1 (13 21) 1 
(14 2) 1 (14 3) 1 (14 5) 1 
(15 10) 1 (15 16) 1 (15 20) 1 (15 23) 1 (15 24) 1 (15 27) 1 
(16 6) 1 (16 11) 1 (16 13) 1 (16 22) 1 (16 25) 1 (16 26) 1 
(17 8) 1 (17 9) 1 (17 18) 1 (17 19) 1 
(18 7) 1 (18 12) 1 (18 14) 1 (18 15) 1 (18 17) 1 
(19 3) 1 
(20 1) 1 (20 4) 1 (20 21) 1 
(21 2) 1 (21 7) 1 (21 12) 1 (21 14) 1 (21 22) 1 (21 25) 1 (21 26) 1 
(22 10) 1 (22 16) 1 (22 20) 1 (22 23) 1 (22 24) 1 (22 27) 1 
(23 5) 1 (23 6) 1 (23 11) 1 (23 13) 1 (23 15) 1 (23 17) 1 
(24 8) 1 (24 9) 1 (24 18) 1 (24 19) 1 
(25 4) 1 
(26 3) 1 
(27 1) 1 (27 16) 1 (27 18) 1 (27 19) 1 (27 23) 1 (27 27) 1 
(28 2) 1 (28 7) 1 (28 12) 1 (28 14) 1 (28 22) 1 (28 25) 1 (28 26) 1 
(29 8) 1 (29 9) 1 (29 10) 1 (29 20) 1 (29 21) 1 (29 24) 1 
(30 5) 1 (30 6) 1 (30 11) 1 (30 13) 1 (30 15) 1 (30 17) 1 
]
